<number of tasks>
20


<number of equipment>
5


<cycle time>
1000


<investment costs>
1,8939
2,26867
3,26135
4,6098
5,23975


<task times>
1,-1,279,394,569,-1
2,-1,290,288,640,-1
3,-1,349,337,532,-1
4,-1,294,310,-1,341
5,648,-1,-1,-1,490
6,-1,312,294,-1,336
7,-1,268,300,598,-1
8,-1,271,301,-1,341
9,-1,307,327,-1,440
10,-1,241,261,639,-1
11,-1,357,303,-1,389
12,-1,285,403,683,-1
13,428,-1,-1,-1,331
14,-1,336,337,615,-1
15,523,-1,-1,-1,325
16,-1,387,440,-1,373
17,-1,373,500,680,-1
18,-1,326,535,-1,410
19,-1,459,318,678,-1
20,-1,319,334,621,-1


<precedence relations>
1,6
2,8
3,7
4,9
6,11
7,10
8,12
9,13
9,14
10,15
14,16
14,17
14,18
15,19
18,20


<task types>
1,3
2,3
3,3
4,2
5,1
6,2
7,3
8,2
9,2
10,3
11,2
12,3
13,1
14,3
15,1
16,2
17,3
18,2
19,3
20,3


<line depot>
1,2
2,0
3,1
4,10
5,4


<processing costs>
1,7200
2,14400
3,14400
4,7200
5,14400


<saving costs>
1,893
2,2686
3,2613
4,609
5,2397


<end>
